c Random generated cnf formula, satisfiable: false
p cnf 10 50
6 -9 1 0
-2 -4 9 0
-7 2 -10 0
3 -10 7 0
2 1 -4 0
-9 -10 -1 0
4 3 8 0
4 -10 -2 0
-4 6 -8 0
-4 -9 10 0
4 -8 -2 0
9 7 2 0
5 4 3 0
6 4 -2 0
9 -8 -10 0
-4 7 -5 0
-10 4 -7 0
2 -8 -6 0
7 4 9 0
-2 8 -5 0
2 -5 -7 0
2 -4 6 0
7 9 -2 0
6 -5 -1 0
7 -8 4 0
3 9 5 0
3 8 9 0
8 -3 4 0
-4 -3 10 0
-5 -10 2 0
2 -4 3 0
-9 5 -1 0
4 -6 -9 0
-8 -6 -3 0
-2 7 5 0
10 -6 5 0
4 -3 -9 0
6 -7 9 0
9 -6 4 0
7 1 8 0
9 -3 -10 0
1 -10 -7 0
10 -6 2 0
-7 -1 10 0
-8 3 2 0
-3 8 2 0
3 2 -4 0
3 -7 -8 0
-5 3 -9 0
6 3 -5 0
